 100 

  29  18  40  40   5  13  16  17  31  21  34   4  34  30  17  32   5  46  35  37  28   3  39  39  10  21  25  42  42  33  15  12  13  14  41   6  43  28  23  17  17  50  38  10  27  37  34  22  48  37  21  20  19  13  14   2   7  48  40  12  22  42  30   4  47  30  21  11  10  22  40   5  43  15  15  21  10   2  40  18  33  46  49  29  28  21   1  30   4  44  35  41  33  10  10   1   9  12  42  38

 1022

   9   9  21  22   4   5   4  23  20  24  23   6  10  16  15  21   8   7   9   9   8   6   8   4   3   8  24  23   6  15   4   4   3  17  18   2  20  16  12  21  22   6   4   1  18  25  13  13  12  21   7   7   8  22  14   6  21   5   8  24  21  15  23  19   6  21  22  21  17  17  25   6   6  16  16   5  21  11  14   3  12   3   9   1  25  25  16  22  24  11   7   9   9  23   4  13  19  15   6  21

